$molecule
0 1
O 0.25621 0.02105 -1.68712
H 0.60051 0.51475 -2.47152
H 0.23721 0.68085 -0.97742
O 1.39241 1.74125 0.55238
H 1.10151 2.54935 0.95838
H 2.36331 1.68175 0.62238
O -1.95429 -1.14325 -0.48682
H -1.55559 -0.91215 -1.33052
H -1.25389 -1.24435 0.16438
O 0.12411 -0.73735 1.60338
H 0.69001 -0.07285 1.19638
H 0.69901 -1.31945 2.12638
$end

$rem
method                    b3lyp 
basis                     cc-pv5z 
mem_total                 48000
mem_static                8000
thresh                    12
scf_convergence           8
xc_grid                   000075000302
max_scf_cycles            2000
symmetry                  false
sym_ignore                true
print_orbitals true
$end
gui                       2
molden_format true
