$molecule
0 1
O -1.10994 -0.72485 -1.20867
H -1.34687 -1.43655 -1.74217
H -0.47154 -0.91655 -0.54157
O 0.46186 -1.95685 0.62713
H -0.26834 -2.59565 0.73563
H 1.30456 -2.35415 0.89163
O 0.50996 0.49825 2.15563
H -0.29454 0.95225 1.96163
H 0.34816 -0.32315 1.61363
O 0.17106 2.37091 -1.59037
H 0.85486 1.87499 -1.09617
H -0.64924 1.82330 -1.56397
$end

$rem
method                    b3lyp 
basis                     cc-pv5z 
mem_total                 48000
mem_static                8000
thresh                    12
scf_convergence           8
xc_grid                   000075000302
max_scf_cycles            2000
symmetry                  false
sym_ignore                true
print_orbitals true
$end
gui                       2
molden_format true
