$molecule
0 1
O -0.18706 0.40791 0.83530
H -0.86906 0.61171 0.22130
H -0.17446 1.10121 1.48230
O 0.28094 -0.39879 -2.79170
H 0.54444 -1.29509 -2.56270
H -0.58696 -0.30859 -2.44470
O 2.35744 -0.84749 -0.57170
H 1.53534 -0.53649 -0.93970
H 2.99839 -0.59069 -1.26770
O -0.77116 -2.54959 0.49930
H -0.81736 -3.41799 1.01530
H -0.49706 -1.88419 1.14930
O 0.80004 2.70721 2.54230
H 0.51504 3.62041 2.35430
H 1.28944 2.62501 3.38430
O -2.50736 1.34161 -1.33470
H -2.63616 2.19761 -0.90370
H -3.42376 0.95531 -1.34170
O 3.25820 1.35971 1.56130
H 2.38414 1.71911 1.85630
H 3.02379 0.62561 0.95730
O -3.11516 -2.10139 -0.79370
H -2.86666 -2.17949 -1.72570
H -2.25886 -1.96099 -0.38370
$end

$rem
method                    b3lyp 
basis                     cc-pv5z 
mem_total                 48000
mem_static                8000
thresh                    12
scf_convergence           8
xc_grid                   000075000302
max_scf_cycles            2000
symmetry                  false
sym_ignore                true
print_orbitals true
$end
gui                       2
molden_format true
