$molecule
0 1
O 9.00190 -0.10839 1.02671
H 9.16590 -0.90639 0.48771
H 8.16790 0.21161 0.61971
O -15.38310 -2.09999 -0.62029
H -15.80210 -2.94380 -0.72629
H -14.51110 -2.29667 -0.20029
O -14.32710 1.11201 1.56071
H -15.19610 0.73251 1.51171
H -13.59110 0.56881 1.32871
O 8.06390 2.63481 -1.48229
H 7.54000 1.83431 -1.33329
H 8.98690 2.35441 -1.47329
O 6.50090 -2.06484 0.30771
H 6.39500 -1.07449 0.27871
H 6.51780 -2.30919 -0.64329
O 6.19940 0.65441 -0.66929
H 5.68380 1.40351 -0.33829
H 5.75580 0.39391 -1.46829
$end

$rem
method                    b3lyp 
basis                     cc-pv5z 
mem_total                 48000
mem_static                8000
thresh                    12
scf_convergence           8
xc_grid                   000075000302
max_scf_cycles            2000
symmetry                  false
sym_ignore                true
print_orbitals true
$end
gui                       2
molden_format true
