$molecule
0 1
O -0.54434 0.15044 0.80740
H -1.43894 0.44324 0.85840
H -0.50014 -0.78626 0.76540
O 1.34916 2.59334 0.78440
H 1.19716 1.63884 0.92440
H 2.11716 2.89214 1.25540
O -0.60734 -0.17176 -2.37260
H -0.18534 0.48534 -1.85960
H -1.51574 -0.17056 -2.05260
O 0.15546 -2.27796 -0.72860
H -0.39934 -3.03496 -0.63960
H -0.07024 -1.76056 -1.52460
O 2.90416 -2.00446 -0.04860
H 3.13516 -2.74996 -0.72960
H 1.89816 -2.07256 -0.06960
O -3.17964 1.77434 1.59640
H -2.25924 1.99794 1.79240
H -3.20774 2.10284 0.67040
$end

$rem
method                    b3lyp 
basis                     cc-pv5z 
mem_total                 48000
mem_static                8000
thresh                    12
scf_convergence           8
xc_grid                   000075000302
max_scf_cycles            2000
symmetry                  false
sym_ignore                true
print_orbitals true
$end
gui                       2
molden_format true
