$molecule
0 1
O -0.15538 -0.17396 -0.05431
H 0.20762 -0.97296 -0.47291
H 0.57462 0.42634 -0.15331
O -0.04638 3.61404 -0.47121
H -0.28738 2.95564 -1.12131
H 0.90962 3.40114 -0.25631
O -2.21638 -3.65066 -0.90051
H -1.43438 -3.17686 -0.89801
H -2.03438 -4.55266 -1.19411
O -2.48938 0.50074 -1.81001
H -2.96238 1.24764 -1.41171
H -1.82738 0.30154 -1.07391
O -0.35738 0.80494 2.40469
H -0.37038 0.02584 1.81069
H -1.12638 0.65924 2.97569
O 2.10562 1.89594 -0.26531
H 2.92662 1.92554 -0.78541
H 2.32162 1.71014 0.68269
O 0.31262 -2.87766 -0.79171
H 0.67862 -3.41176 -1.52291
H 0.42962 -3.56636 -0.12931
O 2.66062 0.12094 1.88969
H 2.91462 -0.35826 1.09669
H 2.03262 -0.33306 2.43269
$end

$rem
method                    b3lyp 
basis                     cc-pv5z 
mem_total                 48000
mem_static                8000
thresh                    12
scf_convergence           8
xc_grid                   000075000302
max_scf_cycles            2000
symmetry                  false
sym_ignore                true
print_orbitals true
$end
gui                       2
molden_format true
