$molecule
0 1
O 0.61838 -0.47016 0.36382
H -0.34202 -0.36246 0.41982
H 0.77338 -1.41916 0.59082
O 1.96208 1.91654 0.52682
H 1.32408 2.60154 0.67382
H 1.37968 1.18354 0.58382
O -2.18522 -0.38376 2.16882
H -2.72032 -1.17186 2.47682
H -2.89852 0.15054 1.69182
O 0.41498 -0.71826 -2.97018
H -0.40742 -0.23846 -3.10818
H 0.72858 -0.56656 -2.05718
O -2.86812 -0.68366 -1.98118
H -2.41912 -0.02346 -1.42018
H -3.67482 -0.76106 -1.50718
O 3.03908 0.15354 -1.64918
H 3.76308 0.09754 -1.00818
H 2.66408 0.95054 -1.22718
O -1.88482 1.88754 -1.02018
H -2.53682 2.55454 -1.13718
H -1.34652 2.15854 -0.26218
O -0.27842 1.32754 3.38582
H -0.61782 0.48254 3.03882
H 0.55028 1.01654 3.84082
O 1.30918 -3.04536 0.97382
H 2.19108 -2.78586 1.32482
H 1.57148 -3.61166 0.28582
$end

$rem
method                    b3lyp 
basis                     cc-pv5z 
mem_total                 48000
mem_static                8000
thresh                    12
scf_convergence           8
xc_grid                   000075000302
max_scf_cycles            2000
symmetry                  false
sym_ignore                true
print_orbitals true
$end
gui                       2
molden_format true
