$molecule
0 1
O 0.78956 0.03727 0.80554
H 0.22173 -0.72113 0.89154
H 0.56853 0.38694 -0.06056
O -3.08844 -1.31773 -0.66346
H -2.24274 -1.71473 -0.48906
H -3.63794 -1.75853 -0.00746
O -1.01434 -2.54353 0.65554
H -0.19194 -3.09913 0.53154
H -1.37074 -2.92453 1.48454
O -2.48324 1.32341 -0.44366
H -3.14164 0.59402 -0.32926
H -2.08214 1.38290 0.44354
O -1.19474 1.84836 2.19554
H -1.16424 2.68627 2.66954
H -0.29014 1.60051 1.93154
O 3.69956 -0.93153 1.48454
H 2.89506 -0.47753 1.29054
H 3.53776 -1.75293 0.94254
O 3.36066 0.94113 -2.26146
H 4.04446 0.44521 -1.76726
H 2.54036 0.39352 -2.23506
O 0.00709 0.89662 -1.86126
H -0.01184 0.08237 -2.39536
H -0.88314 0.84558 -1.49376
$end

$rem
method                    b3lyp 
basis                     cc-pv5z 
mem_total                 48000
mem_static                8000
thresh                    12
scf_convergence           8
xc_grid                   000075000302
max_scf_cycles            2000
symmetry                  false
sym_ignore                true
print_orbitals true
$end
gui                       2
molden_format true
